c 
p cnf 112 183
17 -19 21 0
17 -19 -21 0
3 -2 22 0
-22 -1 6 0
-15 12 23 0
-23 10 24 0
-24 -1 3 0
15 6 25 0
-25 19 26 0
-26 -13 -9 0
-4 -19 -8 0
17 8 27 0
17 8 -27 0
4 -9 -5 0
-9 5 28 0
-9 5 -28 0
10 -4 29 0
-29 14 -15 0
6 -4 30 0
6 -4 -30 0
15 -8 31 0
15 -8 -31 0
-20 -9 32 0
-32 14 11 0
-16 -3 33 0
-16 -3 -33 0
-11 -13 34 0
-11 -13 -34 0
9 10 16 0
-10 -16 20 0
18 -10 35 0
-35 -20 -2 0
-18 8 36 0
-36 10 37 0
-37 -11 -16 0
-8 15 12 0
4 12 38 0
4 12 -38 0
-6 39 40 0
-6 39 -40 0
-6 -39 40 0
-6 -39 -40 0
17 -3 -10 0
-11 41 42 0
-11 41 -42 0
-11 -41 42 0
-11 -41 -42 0
18 -10 43 0
18 -10 -43 0
-4 -3 44 0
-44 -14 -18 0
17 -1 45 0
17 -1 -45 0
-4 -1 -11 0
-15 -11 46 0
-15 -11 -46 0
-16 13 47 0
-47 -6 -7 0
13 -18 48 0
13 -18 -48 0
14 49 50 0
14 49 -50 0
14 -49 50 0
14 -49 -50 0
11 -1 51 0
-51 12 52 0
-52 -8 -13 0
13 14 53 0
-53 17 54 0
-54 -9 15 0
10 55 56 0
10 55 -56 0
10 -55 56 0
10 -55 -56 0
17 57 58 0
17 57 -58 0
17 -57 58 0
17 -57 -58 0
-5 -12 59 0
-59 18 60 0
-60 -10 17 0
4 -9 61 0
-61 -19 8 0
14 3 19 0
1 19 62 0
1 19 -62 0
-15 -12 63 0
-15 -12 -63 0
3 -1 15 0
5 -1 64 0
5 -1 -64 0
3 12 65 0
-65 18 66 0
-66 -14 -8 0
19 -16 67 0
19 -16 -67 0
-19 68 69 0
-19 68 -69 0
-19 -68 69 0
-19 -68 -69 0
4 70 71 0
4 70 -71 0
4 -70 71 0
4 -70 -71 0
4 -11 72 0
-72 -1 -6 0
-20 -10 73 0
-73 19 74 0
-74 -13 -2 0
16 4 75 0
-75 -13 2 0
4 20 76 0
4 20 -76 0
5 8 77 0
5 8 -77 0
-9 78 79 0
-9 78 -79 0
-9 -78 79 0
-9 -78 -79 0
-8 14 80 0
-8 14 -80 0
6 -13 81 0
6 -13 -81 0
-4 -8 82 0
-4 -8 -82 0
12 -11 83 0
-83 -3 84 0
-84 -14 17 0
-11 15 85 0
-85 18 2 0
1 12 -13 0
-15 7 11 0
17 -1 86 0
17 -1 -86 0
14 11 87 0
-87 20 88 0
-88 -5 2 0
5 -4 89 0
-89 9 18 0
8 -5 90 0
-90 20 91 0
-91 -2 12 0
11 12 92 0
-92 -2 -17 0
-3 -4 -2 0
9 -7 93 0
9 -7 -93 0
-5 -4 94 0
-5 -4 -94 0
-7 -12 95 0
-95 -5 96 0
-96 -19 18 0
-4 97 98 0
-4 97 -98 0
-4 -97 98 0
-4 -97 -98 0
-14 -9 99 0
-99 -12 100 0
-100 -15 -3 0
-5 101 102 0
-5 101 -102 0
-5 -101 102 0
-5 -101 -102 0
14 10 -2 0
-3 16 103 0
-103 -17 -13 0
-2 -8 104 0
-2 -8 -104 0
-13 105 106 0
-13 105 -106 0
-13 -105 106 0
-13 -105 -106 0
17 -15 107 0
-107 8 108 0
-108 -2 5 0
-8 -9 109 0
-109 -15 110 0
-110 -6 20 0
-19 12 -4 0
-13 -10 111 0
-13 -10 -111 0
-1 -15 112 0
-112 -5 -8 0
